20	5
0	10	1	8	4	7	2	3	10	6	9	5
1	1	15
2	3	20	15	17
3	1	18
4	3	12	14	15
5	3	16	11	19
6	3	16	13	19
7	3	19	14	20
8	1	13
9	2	13	20
10	1	12
11	2	20	17
12	2	11	16
13	1	14
14	1	21
15	1	21
16	1	21
17	1	21
18	1	21
19	1	21
20	1	21
21	0
0	0	0	0	0	0	0
1	8	0	2	0	0	0
2	8	0	0	2	0	0
3	9	0	5	3	5	0
4	2	0	0	0	0	3
5	1	3	0	4	0	0
6	4	0	0	3	4	2
7	7	0	1	4	2	0
8	7	0	1	0	2	0
9	9	0	0	3	0	0
10	10	0	0	0	0	4
11	10	0	3	4	2	2
12	8	2	5	3	3	1
13	10	0	1	2	0	5
14	9	0	3	0	0	0
15	5	4	0	0	0	5
16	4	0	2	0	0	0
17	6	4	2	5	4	0
18	4	1	3	3	5	0
19	1	1	1	2	4	1
20	3	3	0	2	0	2
21	0	0	0	0	0	0
4	5	5	5	5
